\ ExactEBRP compact MILP generated from C++ command-line runner
Minimize
 obj: G + 0.14999999999999999 e_1 + 0.14999999999999999 e_2
Subject To
 c1: h_1_2 <= 0
 c2: h_1_2 >= 0
 c3: prod_1_0 >= 0
 c4: prod_1_0 <= 0
 c5: - G + prod_1_0 >= -0
 c6: - G + prod_1_0 <= -0
 c7: prod_1_1 >= 0
 c8: prod_1_1 <= 0
 c9: - G + prod_1_1 >= -0
 c10: - G + prod_1_1 <= -0
 c11: prod_1_2 >= 0
 c12: prod_1_2 <= 0
 c13: - G + prod_1_2 >= -0
 c14: - G + prod_1_2 <= -0
 c15: prod_1_3 >= 0
 c16: prod_1_3 <= 0
 c17: - G + prod_1_3 >= -0
 c18: - G + prod_1_3 <= -0
 c19: prod_2_0 >= 0
 c20: prod_2_0 <= 0
 c21: - G + prod_2_0 >= -0
 c22: - G + prod_2_0 <= -0
 c23: prod_2_1 >= 0
 c24: prod_2_1 <= 0
 c25: - G + prod_2_1 >= -0
 c26: - G + prod_2_1 <= -0
 c27: prod_2_2 >= 0
 c28: prod_2_2 <= 0
 c29: - G + prod_2_2 >= -0
 c30: - G + prod_2_2 <= -0
 c31: prod_2_3 >= 0
 c32: prod_2_3 <= 0
 c33: - G + prod_2_3 >= -0
 c34: - G + prod_2_3 <= -0
 c35: h_1_2 <= 0
 c36: r_1 - r_2 <= 0
 c37: - r_1 + r_2 <= 0
 c38: r_1 - r_2 <= 0
 c39: - r_1 + r_2 <= 0
 c40: e_1 + e_2 >= 0
 c41: x_0_0_1 + x_0_0_2 - x_0_1_0 - x_0_2_0 = 0
 c42: x_0_0_1 + x_0_0_2 <= 1
 c43: x_0_0_1 + x_0_2_1 - z_0_1 = 0
 c44: x_0_1_0 + x_0_1_2 - z_0_1 = 0
 c45: x_0_0_2 + x_0_1_2 - z_0_2 = 0
 c46: x_0_2_0 + x_0_2_1 - z_0_2 = 0
 c47: conn_0_0_1 - 2 x_0_0_1 <= 0
 c48: conn_0_0_2 - 2 x_0_0_2 <= 0
 c49: conn_0_1_0 - 2 x_0_1_0 <= 0
 c50: conn_0_1_2 - 2 x_0_1_2 <= 0
 c51: conn_0_2_0 - 2 x_0_2_0 <= 0
 c52: conn_0_2_1 - 2 x_0_2_1 <= 0
 c53: conn_0_0_1 - conn_0_1_0 - conn_0_1_2 + conn_0_2_1 - z_0_1 = 0
 c54: conn_0_0_2 + conn_0_1_2 - conn_0_2_0 - conn_0_2_1 - z_0_2 = 0
 c55: conn_0_0_1 + conn_0_0_2 - conn_0_1_0 - conn_0_2_0 - z_0_1 - z_0_2 = 0
 c56: z_0_1 <= 1
 c57: z_0_2 <= 1
 c58: Y_1 + Y_2 <= 10
 c59: Y_1 + Y_2 >= 9
 c60: d_0_1 - p_0_2 <= 0
 c61: d_0_2 - p_0_1 <= 0
 c62: ord_0_1 - z_0_1 >= 0
 c63: ord_0_1 - 2 z_0_1 <= 0
 c64: ord_0_2 - z_0_2 >= 0
 c65: ord_0_2 - 2 z_0_2 <= 0
 c66: ord_0_1 - ord_0_2 + 2 x_0_1_2 <= 1
 c67: - ord_0_1 + ord_0_2 + 2 x_0_2_1 <= 1
 c68: p_0_1 - z_0_1 <= 0
 c69: d_0_1 - z_0_1 <= 0
 c70: mode_0_1 - z_0_1 <= 0
 c71: - mode_0_1 + p_0_1 <= 0
 c72: d_0_1 + mode_0_1 - z_0_1 <= 0
 c73: d_0_1 + p_0_1 - z_0_1 >= 0
 c74: load_0_1 - z_0_1 <= 0
 c75: p_0_2 - z_0_2 <= 0
 c76: d_0_2 - z_0_2 <= 0
 c77: mode_0_2 - z_0_2 <= 0
 c78: - mode_0_2 + p_0_2 <= 0
 c79: d_0_2 + mode_0_2 - z_0_2 <= 0
 c80: d_0_2 + p_0_2 - z_0_2 >= 0
 c81: load_0_2 - z_0_2 <= 0
 c82: d_0_1 + load_0_1 - p_0_1 + x_0_0_1 <= 1
 c83: d_0_1 + load_0_1 - p_0_1 - x_0_0_1 >= -1
 c84: d_0_2 + load_0_2 - p_0_2 + x_0_0_2 <= 1
 c85: d_0_2 + load_0_2 - p_0_2 - x_0_0_2 >= -1
 c86: d_0_2 - load_0_1 + load_0_2 - p_0_2 + x_0_1_2 <= 1
 c87: d_0_2 - load_0_1 + load_0_2 - p_0_2 - x_0_1_2 >= -1
 c88: d_0_1 + load_0_1 - load_0_2 - p_0_1 + x_0_2_1 <= 1
 c89: d_0_1 + load_0_1 - load_0_2 - p_0_1 - x_0_2_1 >= -1
 c90: - d_0_1 - d_0_2 + p_0_1 + p_0_2 >= 0
 c91: 120 p_0_1 + 120 p_0_2 + 0.66666666666666663 x_0_0_1 + 0.66666666666666663 x_0_0_2 + 0.66666666666666663 x_0_1_0 + 0.94280904158206347 x_0_1_2 + 0.66666666666666663 x_0_2_0 + 0.94280904158206347 x_0_2_1 <= 3600
 c92: 120 p_0_1 + 100000 z_0_1 <= 103598.66666666667
 c93: 120 p_0_2 + 100000 z_0_2 <= 103598.66666666667
 c94: 120 p_0_1 + 120 p_0_2 + 100000 z_0_1 + 100000 z_0_2 <= 203597.7238576251
 c95: 120 p_0_1 + 120 p_0_2 + 3842.2761423749153 z_0_1 + 3842.2761423749153 z_0_2 <= 11282.276142374914
 c96: Y_1 - d_0_1 + p_0_1 = 5
 c97: - 0.20000000000000001 Y_1 + r_1 = 0
 c98: e_1 - r_1 >= -1
 c99: e_1 + r_1 >= 1
 c100: Y_2 - d_0_2 + p_0_2 = 5
 c101: - 0.20000000000000001 Y_2 + r_2 = 0
 c102: e_2 - r_2 >= -1
 c103: e_2 + r_2 >= 1
 c104: Y_1 - 5 z_0_1 <= 5
 c105: - Y_1 - 5 z_0_1 <= -5
 c106: Y_2 - 5 z_0_2 <= 5
 c107: - Y_2 - 5 z_0_2 <= -5
 c108: 120 p_0_1 + 120 p_0_2 <= 3600
 c109: h_1_2 - r_1 + r_2 >= 0
 c110: h_1_2 + r_1 - r_2 >= 0
 c111: Y_1 - bit_1_0 - 2 bit_1_1 - 4 bit_1_2 - 8 bit_1_3 = 0
 c112: - prod_1_0 - 2 prod_1_1 - 4 prod_1_2 - 8 prod_1_3 + zprod_1 = 0
 c113: - G + prod_1_0 <= 0
 c114: - bit_1_0 + prod_1_0 <= 0
 c115: - G - bit_1_0 + prod_1_0 >= -1
 c116: - G + prod_1_1 <= 0
 c117: - bit_1_1 + prod_1_1 <= 0
 c118: - G - bit_1_1 + prod_1_1 >= -1
 c119: - G + prod_1_2 <= 0
 c120: - bit_1_2 + prod_1_2 <= 0
 c121: - G - bit_1_2 + prod_1_2 >= -1
 c122: - G + prod_1_3 <= 0
 c123: - bit_1_3 + prod_1_3 <= 0
 c124: - G - bit_1_3 + prod_1_3 >= -1
 c125: Y_2 - bit_2_0 - 2 bit_2_1 - 4 bit_2_2 - 8 bit_2_3 = 0
 c126: - prod_2_0 - 2 prod_2_1 - 4 prod_2_2 - 8 prod_2_3 + zprod_2 = 0
 c127: - G + prod_2_0 <= 0
 c128: - bit_2_0 + prod_2_0 <= 0
 c129: - G - bit_2_0 + prod_2_0 >= -1
 c130: - G + prod_2_1 <= 0
 c131: - bit_2_1 + prod_2_1 <= 0
 c132: - G - bit_2_1 + prod_2_1 >= -1
 c133: - G + prod_2_2 <= 0
 c134: - bit_2_2 + prod_2_2 <= 0
 c135: - G - bit_2_2 + prod_2_2 >= -1
 c136: - G + prod_2_3 <= 0
 c137: - bit_2_3 + prod_2_3 <= 0
 c138: - G - bit_2_3 + prod_2_3 >= -1
 c139: - h_1_2 + 0.40000000000000002 zprod_1 + 0.40000000000000002 zprod_2 >= 0
Bounds
 0 <= G <= 0
 0 <= W_SP <= 0.95999999999999974
 4 <= Y_1 <= 6
 4 <= Y_2 <= 6
 0 <= bit_1_0 <= 1
 0 <= bit_1_1 <= 1
 0 <= bit_1_2 <= 1
 0 <= bit_1_3 <= 1
 0 <= bit_2_0 <= 1
 0 <= bit_2_1 <= 1
 0 <= bit_2_2 <= 1
 0 <= bit_2_3 <= 1
 0 <= conn_0_0_1 <= 2
 0 <= conn_0_0_2 <= 2
 0 <= conn_0_1_0 <= 2
 0 <= conn_0_1_2 <= 2
 0 <= conn_0_2_0 <= 2
 0 <= conn_0_2_1 <= 2
 0 <= d_0_1 <= 1
 0 <= d_0_2 <= 1
 0 <= e_1 <= 1
 0 <= e_2 <= 1
 0 <= h_1_2 <= 4
 0 <= load_0_1 <= 1
 0 <= load_0_2 <= 1
 0 <= mode_0_1 <= 1
 0 <= mode_0_2 <= 1
 0 <= ord_0_1 <= 2
 0 <= ord_0_2 <= 2
 0 <= p_0_1 <= 1
 0 <= p_0_2 <= 1
 0 <= prod_1_0 <= 0
 0 <= prod_1_1 <= 0
 0 <= prod_1_2 <= 0
 0 <= prod_1_3 <= 0
 0 <= prod_2_0 <= 0
 0 <= prod_2_1 <= 0
 0 <= prod_2_2 <= 0
 0 <= prod_2_3 <= 0
 0 <= r_1 <= 2
 0 <= r_2 <= 2
 0 <= r_max <= 2
 0 <= r_min <= 2
 0 <= x_0_0_1 <= 1
 0 <= x_0_0_2 <= 1
 0 <= x_0_1_0 <= 1
 0 <= x_0_1_2 <= 1
 0 <= x_0_2_0 <= 1
 0 <= x_0_2_1 <= 1
 0 <= z_0_1 <= 1
 0 <= z_0_2 <= 1
 0 <= zprod_1 <= 10
 0 <= zprod_2 <= 10
Generals
 Y_1
 Y_2
 d_0_1
 d_0_2
 load_0_1
 load_0_2
 p_0_1
 p_0_2
Binaries
 bit_1_0
 bit_1_1
 bit_1_2
 bit_1_3
 bit_2_0
 bit_2_1
 bit_2_2
 bit_2_3
 mode_0_1
 mode_0_2
 x_0_0_1
 x_0_0_2
 x_0_1_0
 x_0_1_2
 x_0_2_0
 x_0_2_1
 z_0_1
 z_0_2
End
